Route #1: 11 8 33 42 35 16 24 28
Route #2: 19 15 20 17
Route #3: 37 2 30 4 38
Route #4: 23 14 26 13 43 6 45
Route #5: 10 44 25 18 12 36
Route #6: 32 3 22 7 39 5
Route #7: 9 21 27 1 40 34 31 29 41
cost 1018.238037109375